benchmarks/VRPTW/TSPTW/ins/n100w40.005.txt


!! n100w40.005    39.25 843


CUST NO.   XCOORD.   YCOORD.    DEMAND   READY TIME   DUE DATE   SERVICE TIME


    1      29.00      34.00       0.00       0.00     883.00       0.00
    2       3.00      30.00       0.00     134.00     141.00       0.00
    3      42.00      32.00       0.00     252.00     271.00       0.00
    4      25.00      34.00       0.00       0.00      37.00       0.00
    5       3.00      46.00       0.00     155.00     212.00       0.00
    6       2.00      29.00       0.00     107.00     139.00       0.00
    7      44.00      22.00       0.00     423.00     490.00       0.00
    8      21.00      22.00       0.00       0.00      52.00       0.00
    9      46.00      27.00       0.00     402.00     456.00       0.00
   10       3.00      12.00       0.00     102.00     153.00       0.00
   11      24.00      48.00       0.00     220.00     229.00       0.00
   12       4.00      17.00       0.00      66.00     118.00       0.00
   13       9.00      32.00       0.00     311.00     345.00       0.00
   14      47.00      29.00       0.00     419.00     448.00       0.00
   15      21.00      12.00       0.00     538.00     559.00       0.00
   16      44.00      36.00       0.00     236.00     291.00       0.00
   17      36.00       8.00       0.00     565.00     566.00       0.00
   18      12.00      16.00       0.00      37.00     105.00       0.00
   19      40.00      47.00       0.00     236.00     278.00       0.00
   20       5.00      32.00       0.00      98.00     149.00       0.00
   21      23.00       8.00       0.00     507.00     529.00       0.00
   22      19.00      27.00       0.00       0.00      44.00       0.00
   23       5.00      41.00       0.00     182.00     190.00       0.00
   24      23.00      11.00       0.00     508.00     564.00       0.00
   25       9.00      32.00       0.00     322.00     383.00       0.00
   26      38.00      30.00       0.00     228.00     297.00       0.00
   27      49.00      37.00       0.00     599.00     619.00       0.00
   28      27.00      13.00       0.00     475.00     532.00       0.00
   29      19.00      35.00       0.00     302.00     334.00       0.00
   30      31.00      28.00       0.00     437.00     449.00       0.00
   31       0.00      49.00       0.00     142.00     173.00       0.00
   32      10.00      13.00       0.00      34.00     101.00       0.00
   33      50.00      50.00       0.00     612.00     623.00       0.00
   34      40.00      42.00       0.00     237.00     266.00       0.00
   35      18.00      43.00       0.00     192.00     226.00       0.00
   36      37.00      46.00       0.00     199.00     252.00       0.00
   37      43.00      34.00       0.00     377.00     443.00       0.00
   38      19.00      18.00       0.00       8.00      36.00       0.00
   39      15.00      48.00       0.00     203.00     213.00       0.00
   40       1.00      44.00       0.00     132.00     181.00       0.00
   41      13.00      32.00       0.00     283.00     341.00       0.00
   42      13.00       4.00       0.00     689.00     699.00       0.00
   43      23.00      23.00       0.00       8.00      62.00       0.00
   44      19.00      43.00       0.00     183.00     242.00       0.00
   45       8.00       6.00       0.00      81.00      87.00       0.00
   46      27.00      37.00       0.00     282.00     328.00       0.00
   47      10.00      48.00       0.00     310.00     375.00       0.00
   48      26.00      14.00       0.00     488.00     529.00       0.00
   49      18.00      37.00       0.00     180.00     201.00       0.00
   50      39.00       8.00       0.00     452.00     513.00       0.00
   51      36.00      40.00       0.00     257.00     312.00       0.00
   52      12.00       4.00       0.00      69.00      88.00       0.00
   53      34.00      45.00       0.00     214.00     277.00       0.00
   54       8.00      43.00       0.00     148.00     194.00       0.00
   55      46.00      23.00       0.00     417.00     429.00       0.00
   56      48.00       6.00       0.00     445.00     498.00       0.00
   57      38.00      26.00       0.00     423.00     473.00       0.00
   58      26.00      49.00       0.00     219.00     237.00       0.00
   59      23.00      31.00       0.00       0.00      22.00       0.00
   60      10.00      39.00       0.00     287.00     335.00       0.00
   61      48.00      12.00       0.00     436.00     507.00       0.00
   62      14.00      35.00       0.00     194.00     200.00       0.00
   63      19.00      25.00       0.00      26.00      71.00       0.00
   64      48.00       0.00       0.00     773.00     844.00       0.00
   65      49.00      39.00       0.00     704.00     746.00       0.00
   66       7.00      46.00       0.00     154.00     194.00       0.00
   67      38.00      24.00       0.00     553.00     597.00       0.00
   68      48.00      38.00       0.00     601.00     610.00       0.00
   69      23.00       1.00       0.00     549.00     562.00       0.00
   70      41.00      19.00       0.00     421.00     491.00       0.00
   71      11.00      12.00       0.00      72.00     106.00       0.00
   72      30.00      38.00       0.00     360.00     391.00       0.00
   73      21.00       6.00       0.00     513.00     561.00       0.00
   74      28.00      10.00       0.00     494.00     552.00       0.00
   75      14.00       8.00       0.00      43.00      78.00       0.00
   76       3.00      35.00       0.00     121.00     157.00       0.00
   77      25.00      10.00       0.00     504.00     535.00       0.00
   78      23.00      30.00       0.00      35.00      71.00       0.00
   79      30.00       9.00       0.00     486.00     539.00       0.00
   80       3.00      41.00       0.00     133.00     165.00       0.00
   81      12.00      20.00       0.00      26.00      71.00       0.00
   82      43.00      14.00       0.00     553.00     575.00       0.00
   83       7.00      50.00       0.00     154.00     182.00       0.00
   84      33.00      34.00       0.00     240.00     305.00       0.00
   85       3.00       8.00       0.00      89.00     127.00       0.00
   86      23.00      47.00       0.00     359.00     411.00       0.00
   87       6.00      31.00       0.00     313.00     337.00       0.00
   88      36.00      33.00       0.00     242.00     298.00       0.00
   89      12.00       5.00       0.00      63.00      88.00       0.00
   90      14.00      12.00       0.00      51.00      87.00       0.00
   91      44.00      16.00       0.00     433.00     503.00       0.00
   92      24.00      21.00       0.00      18.00      30.00       0.00
   93      35.00       3.00       0.00     480.00     528.00       0.00
   94      31.00      12.00       0.00     489.00     508.00       0.00
   95      33.00      48.00       0.00     222.00     237.00       0.00
   96      43.00       6.00       0.00     458.00     523.00       0.00
   97      37.00      34.00       0.00     270.00     313.00       0.00
   98      44.00       4.00       0.00     651.00     697.00       0.00
   99      11.00      37.00       0.00     189.00     221.00       0.00
  100      31.00      36.00       0.00     258.00     311.00       0.00
  101      24.00      12.00       0.00     768.00     790.00       0.00
  999       0.00       0.00       0.00       0.00       0.00       0.00
