benchmarks/VRPTW/TSPTW/solution/n100w40.005.txt.solution
1 4 59 43 92 38 8 78 22 63 81 18 90 32 71 75 89 52 45 85 10 12 6 2 20 76 80 40 5 31 83 66 54 23 99 62 49 44 35 39 11 58 95 53 36 19 34 51 16 3 26 88 97 84 100 46 29 41 25 13 87 60 47 86 72 37 14 9 55 7 57 30 70 91 61 56 96 50 93 79 94 74 28 48 77 21 15 24 73 69 17 82 67 27 68 33 98 42 65 101 64 
699
